(set-info :smt-lib-version 2.6)
(set-logic UFDTNIA)
(set-info :source |
Generated by: Amar Shah
Generated on: 2024-12-11
Generator: Verus
Application: Verification of Rust Program
Target solver: z3
Time limit: 10
Benchmarks generated by the Rust verifier Verus (https://verus-lang.github.io/verus/guide/) on the project SplinterDB and processed using Mariposa (https://github.com/secure-foundations/mariposa). z3 solves this without nonlinear, but it cannot be expressed in SMTLib without a nonlinear theory.
|)
(set-info :license "https://creativecommons.org/licenses/by/4.0/")
(set-info :category "industrial")
(set-info :status unsat)
(set-option :auto_config false)
(set-option :smt.mbqi false)
(set-option :smt.case_split 3)
(set-option :smt.qi.eager_threshold 100.0)
(set-option :smt.delay_units true)
(set-option :smt.arith.solver 2)
(set-option :smt.arith.nl false)
(set-option :pi.enabled false)
(set-option :rewriter.sort_disjunctions false)
(set-option :smt.arith.solver 6)
(set-info :comment ";; Prelude")
(set-info :comment ";; AIR prelude")
(declare-sort %%Function%% 0)
(declare-sort FuelId 0)
(declare-sort Fuel 0)
(declare-const zero Fuel)
(declare-fun succ (Fuel) Fuel)
(declare-fun fuel_bool (FuelId) Bool)
(declare-fun fuel_bool_default (FuelId) Bool)
(declare-const fuel_defaults Bool)
(assert (=> fuel_defaults (forall ((id FuelId)) (! (= (fuel_bool id) (fuel_bool_default id)) :pattern ((fuel_bool id))))))
(declare-datatypes ((fndef 0)) (((fndef_singleton ))))
(declare-sort Poly 0)
(declare-sort Height 0)
(declare-fun I (Int) Poly)
(declare-fun B (Bool) Poly)
(declare-fun F (fndef) Poly)
(declare-fun %I (Poly) Int)
(declare-fun %B (Poly) Bool)
(declare-fun %F (Poly) fndef)
(declare-sort Type 0)
(declare-const BOOL Type)
(declare-const INT Type)
(declare-const NAT Type)
(declare-const CHAR Type)
(declare-fun UINT (Int) Type)
(declare-fun SINT (Int) Type)
(declare-fun CONST_INT (Int) Type)
(declare-sort Dcr 0)
(declare-const $ Dcr)
(declare-fun REF (Dcr) Dcr)
(declare-fun MUT_REF (Dcr) Dcr)
(declare-fun BOX (Dcr Type Dcr) Dcr)
(declare-fun RC (Dcr Type Dcr) Dcr)
(declare-fun ARC (Dcr Type Dcr) Dcr)
(declare-fun GHOST (Dcr) Dcr)
(declare-fun TRACKED (Dcr) Dcr)
(declare-fun NEVER (Dcr) Dcr)
(declare-fun CONST_PTR (Dcr) Dcr)
(declare-fun ARRAY (Dcr Type Dcr Type) Type)
(declare-fun SLICE (Dcr Type) Type)
(declare-const STRSLICE Type)
(declare-const ALLOCATOR_GLOBAL Type)
(declare-fun PTR (Dcr Type) Type)
(declare-fun has_type (Poly Type) Bool)
(declare-fun as_type (Poly Type) Poly)
(declare-fun mk_fun (%%Function%%) %%Function%%)
(declare-fun const_int (Type) Int)
(assert (forall ((i Int)) (! (= i (const_int (CONST_INT i))) :pattern ((CONST_INT i)))))
(assert (forall ((b Bool)) (! (has_type (B b) BOOL) :pattern ((has_type (B b) BOOL)))))
(assert (forall ((x Poly) (True Type)) (! (and (has_type (as_type x True) True) (=> (has_type x True) (= x (as_type x True)))) :pattern ((as_type x True)))))
(assert (forall ((x %%Function%%)) (! (= (mk_fun x) x) :pattern ((mk_fun x)))))
(assert (forall ((x Bool)) (! (= x (%B (B x))) :pattern ((B x)))))
(assert (forall ((x Int)) (! (= x (%I (I x))) :pattern ((I x)))))
(assert (forall ((x Poly)) (! (=> (has_type x BOOL) (= x (B (%B x)))) :pattern ((has_type x BOOL)))))
(assert (forall ((x Poly)) (! (=> (has_type x INT) (= x (I (%I x)))) :pattern ((has_type x INT)))))
(assert (forall ((x Poly)) (! (=> (has_type x NAT) (= x (I (%I x)))) :pattern ((has_type x NAT)))))
(assert (forall ((bits Int) (x Poly)) (! (=> (has_type x (UINT bits)) (= x (I (%I x)))) :pattern ((has_type x (UINT bits))))))
(assert (forall ((bits Int) (x Poly)) (! (=> (has_type x (SINT bits)) (= x (I (%I x)))) :pattern ((has_type x (SINT bits))))))
(assert (forall ((x Poly)) (! (=> (has_type x CHAR) (= x (I (%I x)))) :pattern ((has_type x CHAR)))))
(declare-fun ext_eq (Bool Type Poly Poly) Bool)
(assert (forall ((deep Bool) (True Type) (x Poly) (y Poly)) (! (= (= x y) (ext_eq deep True x y)) :pattern ((ext_eq deep True x y)))))
(declare-const SZ Int)
(assert (or (= SZ 32) (= SZ 64)))
(declare-fun uHi (Int) Int)
(declare-fun iLo (Int) Int)
(declare-fun iHi (Int) Int)
(assert (= (uHi 8) 256))
(assert (= (uHi 16) 65536))
(assert (= (uHi 32) 4294967296))
(assert (= (uHi 64) 18446744073709551616))
(assert (= (uHi 128) (+ 1 340282366920938463463374607431768211455)))
(assert (= (iLo 8) (- 128)))
(assert (= (iLo 16) (- 32768)))
(assert (= (iLo 32) (- 2147483648)))
(assert (= (iLo 64) (- 9223372036854775808)))
(assert (= (iLo 128) (- 170141183460469231731687303715884105728)))
(assert (= (iHi 8) 128))
(assert (= (iHi 16) 32768))
(assert (= (iHi 32) 2147483648))
(assert (= (iHi 64) 9223372036854775808))
(assert (= (iHi 128) 170141183460469231731687303715884105728))
(declare-fun nClip (Int) Int)
(declare-fun uClip (Int Int) Int)
(declare-fun iClip (Int Int) Int)
(declare-fun charClip (Int) Int)
(assert (forall ((i Int)) (! (and (<= 0 (nClip i)) (=> (<= 0 i) (= i (nClip i)))) :pattern ((nClip i)))))
(assert (forall ((bits Int) (i Int)) (! (and (<= 0 (uClip bits i)) (< (uClip bits i) (uHi bits)) (=> (and (<= 0 i) (< i (uHi bits))) (= i (uClip bits i)))) :pattern ((uClip bits i)))))
(assert (forall ((bits Int) (i Int)) (! (and (<= (iLo bits) (iClip bits i)) (< (iClip bits i) (iHi bits)) (=> (and (<= (iLo bits) i) (< i (iHi bits))) (= i (iClip bits i)))) :pattern ((iClip bits i)))))
(assert (forall ((i Int)) (! (and (or (and (<= 0 (charClip i)) (<= (charClip i) 55295)) (and (<= 57344 (charClip i)) (<= (charClip i) 1114111))) (=> (or (and (<= 0 i) (<= i 55295)) (and (<= 57344 i) (<= i 1114111))) (= i (charClip i)))) :pattern ((charClip i)))))
(declare-fun uInv (Int Int) Bool)
(declare-fun iInv (Int Int) Bool)
(declare-fun charInv (Int) Bool)
(assert (forall ((bits Int) (i Int)) (! (= (uInv bits i) (and (<= 0 i) (< i (uHi bits)))) :pattern ((uInv bits i)))))
(assert (forall ((bits Int) (i Int)) (! (= (iInv bits i) (and (<= (iLo bits) i) (< i (iHi bits)))) :pattern ((iInv bits i)))))
(assert (forall ((i Int)) (! (= (charInv i) (or (and (<= 0 i) (<= i 55295)) (and (<= 57344 i) (<= i 1114111)))) :pattern ((charInv i)))))
(assert (forall ((x Int)) (! (has_type (I x) INT) :pattern ((has_type (I x) INT)))))
(assert (forall ((x Int)) (! (=> (<= 0 x) (has_type (I x) NAT)) :pattern ((has_type (I x) NAT)))))
(assert (forall ((bits Int) (x Int)) (! (=> (uInv bits x) (has_type (I x) (UINT bits))) :pattern ((has_type (I x) (UINT bits))))))
(assert (forall ((bits Int) (x Int)) (! (=> (iInv bits x) (has_type (I x) (SINT bits))) :pattern ((has_type (I x) (SINT bits))))))
(assert (forall ((x Int)) (! (=> (charInv x) (has_type (I x) CHAR)) :pattern ((has_type (I x) CHAR)))))
(assert (forall ((x Poly)) (! (=> (has_type x NAT) (<= 0 (%I x))) :pattern ((has_type x NAT)))))
(assert (forall ((bits Int) (x Poly)) (! (=> (has_type x (UINT bits)) (uInv bits (%I x))) :pattern ((has_type x (UINT bits))))))
(assert (forall ((bits Int) (x Poly)) (! (=> (has_type x (SINT bits)) (iInv bits (%I x))) :pattern ((has_type x (SINT bits))))))
(declare-fun Add (Int Int) Int)
(declare-fun Sub (Int Int) Int)
(declare-fun Mul (Int Int) Int)
(declare-fun EucDiv (Int Int) Int)
(declare-fun EucMod (Int Int) Int)
(assert (forall ((x Int) (y Int)) (! (= (Add x y) (+ x y)) :pattern ((Add x y)))))
(assert (forall ((x Int) (y Int)) (! (= (Sub x y) (- x y)) :pattern ((Sub x y)))))
(assert (forall ((x Int) (y Int)) (! (= (Mul x y) (* x y)) :pattern ((Mul x y)))))
(assert (forall ((x Int) (y Int)) (! (= (EucDiv x y) (div x y)) :pattern ((EucDiv x y)))))
(assert (forall ((x Int) (y Int)) (! (= (EucMod x y) (mod x y)) :pattern ((EucMod x y)))))
(assert (forall ((x Int) (y Int)) (! (=> (and (<= 0 x) (<= 0 y)) (<= 0 (Mul x y))) :pattern ((Mul x y)))))
(assert (forall ((x Int) (y Int)) (! (=> (and (<= 0 x) (< 0 y)) (and (<= 0 (EucDiv x y)) (<= (EucDiv x y) x))) :pattern ((EucDiv x y)))))
(assert (forall ((x Int) (y Int)) (! (=> (and (<= 0 x) (< 0 y)) (and (<= 0 (EucMod x y)) (< (EucMod x y) y))) :pattern ((EucMod x y)))))
(declare-fun bitxor (Poly Poly) Int)
(declare-fun bitand (Poly Poly) Int)
(declare-fun bitor (Poly Poly) Int)
(declare-fun bitshr (Poly Poly) Int)
(declare-fun bitshl (Poly Poly) Int)
(declare-fun bitnot (Poly) Int)
(assert (forall ((x Poly) (y Poly) (bits Int)) (! (=> (and (uInv bits (%I x)) (uInv bits (%I y))) (uInv bits (bitxor x y))) :pattern ((uClip bits (bitxor x y))))))
(assert (forall ((x Poly) (y Poly) (bits Int)) (! (=> (and (iInv bits (%I x)) (iInv bits (%I y))) (iInv bits (bitxor x y))) :pattern ((iClip bits (bitxor x y))))))
(assert (forall ((x Poly) (y Poly) (bits Int)) (! (=> (and (uInv bits (%I x)) (uInv bits (%I y))) (uInv bits (bitor x y))) :pattern ((uClip bits (bitor x y))))))
(assert (forall ((x Poly) (y Poly) (bits Int)) (! (=> (and (iInv bits (%I x)) (iInv bits (%I y))) (iInv bits (bitor x y))) :pattern ((iClip bits (bitor x y))))))
(assert (forall ((x Poly) (y Poly) (bits Int)) (! (=> (and (uInv bits (%I x)) (uInv bits (%I y))) (uInv bits (bitand x y))) :pattern ((uClip bits (bitand x y))))))
(assert (forall ((x Poly) (y Poly) (bits Int)) (! (=> (and (iInv bits (%I x)) (iInv bits (%I y))) (iInv bits (bitand x y))) :pattern ((iClip bits (bitand x y))))))
(assert (forall ((x Poly) (y Poly) (bits Int)) (! (=> (and (uInv bits (%I x)) (<= 0 (%I y))) (uInv bits (bitshr x y))) :pattern ((uClip bits (bitshr x y))))))
(assert (forall ((x Poly) (y Poly) (bits Int)) (! (=> (and (iInv bits (%I x)) (<= 0 (%I y))) (iInv bits (bitshr x y))) :pattern ((iClip bits (bitshr x y))))))
(declare-fun singular_mod (Int Int) Int)
(assert (forall ((x Int) (y Int)) (! (=> (not (= y 0)) (= (EucMod x y) (singular_mod x y))) :pattern ((singular_mod x y)))))
(declare-fun closure_req (Type Dcr Type Poly Poly) Bool)
(declare-fun closure_ens (Type Dcr Type Poly Poly Poly) Bool)
(declare-fun height (Poly) Height)
(declare-fun height_lt (Height Height) Bool)
(declare-fun fun_from_recursive_field (Poly) Poly)
(declare-fun check_decrease_int (Int Int Bool) Bool)
(assert (forall ((cur Int) (prev Int) (otherwise Bool)) (! (= (check_decrease_int cur prev otherwise) (or (and (<= 0 cur) (< cur prev)) (and (= cur prev) otherwise))) :pattern ((check_decrease_int cur prev otherwise)))))
(declare-fun check_decrease_height (Poly Poly Bool) Bool)
(assert (forall ((cur Poly) (prev Poly) (otherwise Bool)) (! (= (check_decrease_height cur prev otherwise) (or (height_lt (height cur) (height prev)) (and (= (height cur) (height prev)) otherwise))) :pattern ((check_decrease_height cur prev otherwise)))))
(declare-fun partial-order (Height Height) Bool)
(assert (forall ((x Height)) (partial-order x x)))
(assert (forall ((x Height) (y Height)) (=> (and (partial-order x y) (partial-order y x)) (= x y))))
(assert (forall ((x Height) (y Height) (z Height)) (=> (and (partial-order x y) (partial-order y z)) (partial-order x z))))
(assert (forall ((x Height) (y Height)) (! (= (height_lt x y) (and (partial-order x y) (not (= x y)))) :pattern ((height_lt x y)))))
(set-info :comment ";; MODULE 'module marshalling::math_v'")
(set-info :comment ";; marshalling/math_v.rs:39:1: 39:61 (#0)")
(set-info :comment ";; query spun off because: nonlinear")
(set-info :comment ";; Fuel")
(declare-const fuel%vstd!seq.impl&%0.spec_index. FuelId)
(declare-const fuel%vstd!seq.impl&%0.take. FuelId)
(declare-const fuel%vstd!seq.axiom_seq_index_decreases. FuelId)
(declare-const fuel%vstd!seq.axiom_seq_subrange_decreases. FuelId)
(declare-const fuel%vstd!seq.axiom_seq_ext_equal. FuelId)
(declare-const fuel%vstd!seq.axiom_seq_ext_equal_deep. FuelId)
(declare-const fuel%vstd!seq.axiom_seq_subrange_len. FuelId)
(declare-const fuel%vstd!seq.axiom_seq_subrange_index. FuelId)
(declare-const fuel%lib!marshalling.math_v.is_prefix. FuelId)
(declare-const fuel%vstd!array.group_array_axioms. FuelId)
(declare-const fuel%vstd!map.group_map_axioms. FuelId)
(declare-const fuel%vstd!multiset.group_multiset_axioms. FuelId)
(declare-const fuel%vstd!raw_ptr.group_raw_ptr_axioms. FuelId)
(declare-const fuel%vstd!seq.group_seq_axioms. FuelId)
(declare-const fuel%vstd!seq_lib.group_seq_lib_default. FuelId)
(declare-const fuel%vstd!set.group_set_axioms. FuelId)
(declare-const fuel%vstd!set_lib.group_set_lib_axioms. FuelId)
(declare-const fuel%vstd!slice.group_slice_axioms. FuelId)
(declare-const fuel%vstd!string.group_string_axioms. FuelId)
(declare-const fuel%vstd!std_specs.bits.group_bits_axioms. FuelId)
(declare-const fuel%vstd!std_specs.control_flow.group_control_flow_axioms. FuelId)
(declare-const fuel%vstd!std_specs.range.group_range_axioms. FuelId)
(declare-const fuel%vstd!std_specs.vec.group_vec_axioms. FuelId)
(declare-const fuel%vstd!group_vstd_default. FuelId)
(assert (distinct fuel%vstd!seq.impl&%0.spec_index. fuel%vstd!seq.impl&%0.take. fuel%vstd!seq.axiom_seq_index_decreases. fuel%vstd!seq.axiom_seq_subrange_decreases. fuel%vstd!seq.axiom_seq_ext_equal. fuel%vstd!seq.axiom_seq_ext_equal_deep. fuel%vstd!seq.axiom_seq_subrange_len. fuel%vstd!seq.axiom_seq_subrange_index. fuel%lib!marshalling.math_v.is_prefix. fuel%vstd!array.group_array_axioms. fuel%vstd!map.group_map_axioms. fuel%vstd!multiset.group_multiset_axioms. fuel%vstd!raw_ptr.group_raw_ptr_axioms. fuel%vstd!seq.group_seq_axioms. fuel%vstd!seq_lib.group_seq_lib_default. fuel%vstd!set.group_set_axioms. fuel%vstd!set_lib.group_set_lib_axioms. fuel%vstd!slice.group_slice_axioms. fuel%vstd!string.group_string_axioms. fuel%vstd!std_specs.bits.group_bits_axioms. fuel%vstd!std_specs.control_flow.group_control_flow_axioms. fuel%vstd!std_specs.range.group_range_axioms. fuel%vstd!std_specs.vec.group_vec_axioms. fuel%vstd!group_vstd_default.))
(assert (=> (fuel_bool_default fuel%vstd!seq.group_seq_axioms.) (and (fuel_bool_default fuel%vstd!seq.axiom_seq_index_decreases.) (fuel_bool_default fuel%vstd!seq.axiom_seq_subrange_decreases.) (fuel_bool_default fuel%vstd!seq.axiom_seq_ext_equal.) (fuel_bool_default fuel%vstd!seq.axiom_seq_ext_equal_deep.) (fuel_bool_default fuel%vstd!seq.axiom_seq_subrange_len.) (fuel_bool_default fuel%vstd!seq.axiom_seq_subrange_index.))))
(assert (fuel_bool_default fuel%vstd!group_vstd_default.))
(assert (=> (fuel_bool_default fuel%vstd!group_vstd_default.) (and (fuel_bool_default fuel%vstd!seq.group_seq_axioms.) (fuel_bool_default fuel%vstd!seq_lib.group_seq_lib_default.) (fuel_bool_default fuel%vstd!map.group_map_axioms.) (fuel_bool_default fuel%vstd!set.group_set_axioms.) (fuel_bool_default fuel%vstd!set_lib.group_set_lib_axioms.) (fuel_bool_default fuel%vstd!std_specs.bits.group_bits_axioms.) (fuel_bool_default fuel%vstd!std_specs.control_flow.group_control_flow_axioms.) (fuel_bool_default fuel%vstd!std_specs.vec.group_vec_axioms.) (fuel_bool_default fuel%vstd!slice.group_slice_axioms.) (fuel_bool_default fuel%vstd!array.group_array_axioms.) (fuel_bool_default fuel%vstd!multiset.group_multiset_axioms.) (fuel_bool_default fuel%vstd!string.group_string_axioms.) (fuel_bool_default fuel%vstd!std_specs.range.group_range_axioms.) (fuel_bool_default fuel%vstd!raw_ptr.group_raw_ptr_axioms.))))
(set-info :comment ";; Datatypes")
(declare-datatypes ((tuple%0. 0)) (((tuple%0./tuple%0 ))))
(declare-fun TYPE%vstd!seq.Seq. (Dcr Type) Type)
(declare-const TYPE%tuple%0. Type)
(declare-fun Poly%tuple%0. (tuple%0.) Poly)
(declare-fun %Poly%tuple%0. (Poly) tuple%0.)
(assert (forall ((x tuple%0.)) (! (= x (%Poly%tuple%0. (Poly%tuple%0. x))) :pattern ((Poly%tuple%0. x)))))
(assert (forall ((x Poly)) (! (=> (has_type x TYPE%tuple%0.) (= x (Poly%tuple%0. (%Poly%tuple%0. x)))) :pattern ((has_type x TYPE%tuple%0.)))))
(assert (forall ((x tuple%0.)) (! (has_type (Poly%tuple%0. x) TYPE%tuple%0.) :pattern ((has_type (Poly%tuple%0. x) TYPE%tuple%0.)))))
(set-info :comment ";; Function-Decl vstd::seq::Seq::len")
(declare-fun vstd!seq.Seq.len.? (Dcr Type Poly) Int)
(set-info :comment ";; Function-Decl vstd::seq::Seq::subrange")
(declare-fun vstd!seq.Seq.subrange.? (Dcr Type Poly Poly Poly) Poly)
(set-info :comment ";; Function-Decl vstd::seq::Seq::index")
(declare-fun vstd!seq.Seq.index.? (Dcr Type Poly Poly) Poly)
(set-info :comment ";; Function-Decl vstd::seq::impl&%0::spec_index")
(declare-fun vstd!seq.impl&%0.spec_index.? (Dcr Type Poly Poly) Poly)
(set-info :comment ";; Function-Decl vstd::seq::impl&%0::take")
(declare-fun vstd!seq.impl&%0.take.? (Dcr Type Poly Poly) Poly)
(set-info :comment ";; Function-Decl lib::marshalling::math_v::is_prefix")
(declare-fun lib!marshalling.math_v.is_prefix.? (Dcr Type Poly Poly) Bool)
(set-info :comment ";; Function-Axioms vstd::seq::Seq::len")
(assert (forall ((A&. Dcr) (A& Type) (self! Poly)) (! (=> (has_type self! (TYPE%vstd!seq.Seq. A&. A&)) (<= 0 (vstd!seq.Seq.len.? A&. A& self!))) :pattern ((vstd!seq.Seq.len.? A&. A& self!)))))
(set-info :comment ";; Function-Specs vstd::seq::Seq::subrange")
(declare-fun req%vstd!seq.Seq.subrange. (Dcr Type Poly Poly Poly) Bool)
(declare-const %%global_location_label%%0 Bool)
(assert (forall ((A&. Dcr) (A& Type) (self! Poly) (start_inclusive! Poly) (end_exclusive! Poly)) (! (= (req%vstd!seq.Seq.subrange. A&. A& self! start_inclusive! end_exclusive!) (=> %%global_location_label%%0 (and (and (<= 0 (%I start_inclusive!)) (<= (%I start_inclusive!) (%I end_exclusive!))) (<= (%I end_exclusive!) (vstd!seq.Seq.len.? A&. A& self!))))) :pattern ((req%vstd!seq.Seq.subrange. A&. A& self! start_inclusive! end_exclusive!)))))
(set-info :comment ";; Function-Axioms vstd::seq::Seq::subrange")
(assert (forall ((A&. Dcr) (A& Type) (self! Poly) (start_inclusive! Poly) (end_exclusive! Poly)) (! (=> (and (has_type self! (TYPE%vstd!seq.Seq. A&. A&)) (has_type start_inclusive! INT) (has_type end_exclusive! INT)) (has_type (vstd!seq.Seq.subrange.? A&. A& self! start_inclusive! end_exclusive!) (TYPE%vstd!seq.Seq. A&. A&))) :pattern ((vstd!seq.Seq.subrange.? A&. A& self! start_inclusive! end_exclusive!)))))
(set-info :comment ";; Function-Specs vstd::seq::Seq::index")
(declare-fun req%vstd!seq.Seq.index. (Dcr Type Poly Poly) Bool)
(declare-const %%global_location_label%%1 Bool)
(assert (forall ((A&. Dcr) (A& Type) (self! Poly) (i! Poly)) (! (= (req%vstd!seq.Seq.index. A&. A& self! i!) (=> %%global_location_label%%1 (and (<= 0 (%I i!)) (< (%I i!) (vstd!seq.Seq.len.? A&. A& self!))))) :pattern ((req%vstd!seq.Seq.index. A&. A& self! i!)))))
(set-info :comment ";; Function-Axioms vstd::seq::Seq::index")
(assert (forall ((A&. Dcr) (A& Type) (self! Poly) (i! Poly)) (! (=> (and (has_type self! (TYPE%vstd!seq.Seq. A&. A&)) (has_type i! INT)) (has_type (vstd!seq.Seq.index.? A&. A& self! i!) A&)) :pattern ((vstd!seq.Seq.index.? A&. A& self! i!)))))
(set-info :comment ";; Function-Specs vstd::seq::impl&%0::spec_index")
(declare-fun req%vstd!seq.impl&%0.spec_index. (Dcr Type Poly Poly) Bool)
(declare-const %%global_location_label%%2 Bool)
(assert (forall ((A&. Dcr) (A& Type) (self! Poly) (i! Poly)) (! (= (req%vstd!seq.impl&%0.spec_index. A&. A& self! i!) (=> %%global_location_label%%2 (and (<= 0 (%I i!)) (< (%I i!) (vstd!seq.Seq.len.? A&. A& self!))))) :pattern ((req%vstd!seq.impl&%0.spec_index. A&. A& self! i!)))))
(set-info :comment ";; Function-Axioms vstd::seq::impl&%0::spec_index")
(assert (fuel_bool_default fuel%vstd!seq.impl&%0.spec_index.))
(assert (=> (fuel_bool fuel%vstd!seq.impl&%0.spec_index.) (forall ((A&. Dcr) (A& Type) (self! Poly) (i! Poly)) (! (= (vstd!seq.impl&%0.spec_index.? A&. A& self! i!) (vstd!seq.Seq.index.? A&. A& self! i!)) :pattern ((vstd!seq.impl&%0.spec_index.? A&. A& self! i!))))))
(assert (forall ((A&. Dcr) (A& Type) (self! Poly) (i! Poly)) (! (=> (and (has_type self! (TYPE%vstd!seq.Seq. A&. A&)) (has_type i! INT)) (has_type (vstd!seq.impl&%0.spec_index.? A&. A& self! i!) A&)) :pattern ((vstd!seq.impl&%0.spec_index.? A&. A& self! i!)))))
(set-info :comment ";; Broadcast vstd::seq::axiom_seq_index_decreases")
(assert (=> (fuel_bool fuel%vstd!seq.axiom_seq_index_decreases.) (forall ((A&. Dcr) (A& Type) (s! Poly) (i! Poly)) (! (=> (and (has_type s! (TYPE%vstd!seq.Seq. A&. A&)) (has_type i! INT)) (=> (and (<= 0 (%I i!)) (< (%I i!) (vstd!seq.Seq.len.? A&. A& s!))) (height_lt (height (vstd!seq.Seq.index.? A&. A& s! i!)) (height s!)))) :pattern ((height (vstd!seq.Seq.index.? A&. A& s! i!)))))))
(set-info :comment ";; Broadcast vstd::seq::axiom_seq_subrange_decreases")
(assert (=> (fuel_bool fuel%vstd!seq.axiom_seq_subrange_decreases.) (forall ((A&. Dcr) (A& Type) (s! Poly) (i! Poly) (j! Poly)) (! (=> (and (has_type s! (TYPE%vstd!seq.Seq. A&. A&)) (has_type i! INT) (has_type j! INT)) (=> (and (and (and (<= 0 (%I i!)) (<= (%I i!) (%I j!))) (<= (%I j!) (vstd!seq.Seq.len.? A&. A& s!))) (< (vstd!seq.Seq.len.? A&. A& (vstd!seq.Seq.subrange.? A&. A& s! i! j!)) (vstd!seq.Seq.len.? A&. A& s!))) (height_lt (height (vstd!seq.Seq.subrange.? A&. A& s! i! j!)) (height s!)))) :pattern ((height (vstd!seq.Seq.subrange.? A&. A& s! i! j!)))))))
(set-info :comment ";; Broadcast vstd::seq::axiom_seq_ext_equal")
(assert (=> (fuel_bool fuel%vstd!seq.axiom_seq_ext_equal.) (forall ((A&. Dcr) (A& Type) (s1! Poly) (s2! Poly)) (! (=> (and (has_type s1! (TYPE%vstd!seq.Seq. A&. A&)) (has_type s2! (TYPE%vstd!seq.Seq. A&. A&))) (= (ext_eq false (TYPE%vstd!seq.Seq. A&. A&) s1! s2!) (and (= (vstd!seq.Seq.len.? A&. A& s1!) (vstd!seq.Seq.len.? A&. A& s2!)) (forall ((i$ Poly)) (! (=> (has_type i$ INT) (=> (and (<= 0 (%I i$)) (< (%I i$) (vstd!seq.Seq.len.? A&. A& s1!))) (= (vstd!seq.Seq.index.? A&. A& s1! i$) (vstd!seq.Seq.index.? A&. A& s2! i$)))) :pattern ((vstd!seq.Seq.index.? A&. A& s1! i$)) :pattern ((vstd!seq.Seq.index.? A&. A& s2! i$))))))) :pattern ((ext_eq false (TYPE%vstd!seq.Seq. A&. A&) s1! s2!))))))
(set-info :comment ";; Broadcast vstd::seq::axiom_seq_ext_equal_deep")
(assert (=> (fuel_bool fuel%vstd!seq.axiom_seq_ext_equal_deep.) (forall ((A&. Dcr) (A& Type) (s1! Poly) (s2! Poly)) (! (=> (and (has_type s1! (TYPE%vstd!seq.Seq. A&. A&)) (has_type s2! (TYPE%vstd!seq.Seq. A&. A&))) (= (ext_eq true (TYPE%vstd!seq.Seq. A&. A&) s1! s2!) (and (= (vstd!seq.Seq.len.? A&. A& s1!) (vstd!seq.Seq.len.? A&. A& s2!)) (forall ((i$ Poly)) (! (=> (has_type i$ INT) (=> (and (<= 0 (%I i$)) (< (%I i$) (vstd!seq.Seq.len.? A&. A& s1!))) (ext_eq true A& (vstd!seq.Seq.index.? A&. A& s1! i$) (vstd!seq.Seq.index.? A&. A& s2! i$)))) :pattern ((vstd!seq.Seq.index.? A&. A& s1! i$)) :pattern ((vstd!seq.Seq.index.? A&. A& s2! i$))))))) :pattern ((ext_eq true (TYPE%vstd!seq.Seq. A&. A&) s1! s2!))))))
(set-info :comment ";; Broadcast vstd::seq::axiom_seq_subrange_len")
(assert (=> (fuel_bool fuel%vstd!seq.axiom_seq_subrange_len.) (forall ((A&. Dcr) (A& Type) (s! Poly) (j! Poly) (k! Poly)) (! (=> (and (has_type s! (TYPE%vstd!seq.Seq. A&. A&)) (has_type j! INT) (has_type k! INT)) (=> (and (and (<= 0 (%I j!)) (<= (%I j!) (%I k!))) (<= (%I k!) (vstd!seq.Seq.len.? A&. A& s!))) (= (vstd!seq.Seq.len.? A&. A& (vstd!seq.Seq.subrange.? A&. A& s! j! k!)) (Sub (%I k!) (%I j!))))) :pattern ((vstd!seq.Seq.len.? A&. A& (vstd!seq.Seq.subrange.? A&. A& s! j! k!)))))))
(set-info :comment ";; Broadcast vstd::seq::axiom_seq_subrange_index")
(assert (=> (fuel_bool fuel%vstd!seq.axiom_seq_subrange_index.) (forall ((A&. Dcr) (A& Type) (s! Poly) (j! Poly) (k! Poly) (i! Poly)) (! (=> (and (has_type s! (TYPE%vstd!seq.Seq. A&. A&)) (has_type j! INT) (has_type k! INT) (has_type i! INT)) (=> (and (and (and (<= 0 (%I j!)) (<= (%I j!) (%I k!))) (<= (%I k!) (vstd!seq.Seq.len.? A&. A& s!))) (and (<= 0 (%I i!)) (< (%I i!) (Sub (%I k!) (%I j!))))) (= (vstd!seq.Seq.index.? A&. A& (vstd!seq.Seq.subrange.? A&. A& s! j! k!) i!) (vstd!seq.Seq.index.? A&. A& s! (I (Add (%I i!) (%I j!))))))) :pattern ((vstd!seq.Seq.index.? A&. A& (vstd!seq.Seq.subrange.? A&. A& s! j! k!) i!))))))
(set-info :comment ";; Function-Axioms vstd::seq::impl&%0::take")
(assert (fuel_bool_default fuel%vstd!seq.impl&%0.take.))
(assert (=> (fuel_bool fuel%vstd!seq.impl&%0.take.) (forall ((A&. Dcr) (A& Type) (self! Poly) (n! Poly)) (! (= (vstd!seq.impl&%0.take.? A&. A& self! n!) (vstd!seq.Seq.subrange.? A&. A& self! (I 0) n!)) :pattern ((vstd!seq.impl&%0.take.? A&. A& self! n!))))))
(assert (forall ((A&. Dcr) (A& Type) (self! Poly) (n! Poly)) (! (=> (and (has_type self! (TYPE%vstd!seq.Seq. A&. A&)) (has_type n! INT)) (has_type (vstd!seq.impl&%0.take.? A&. A& self! n!) (TYPE%vstd!seq.Seq. A&. A&))) :pattern ((vstd!seq.impl&%0.take.? A&. A& self! n!)))))
(set-info :comment ";; Function-Specs lib::marshalling::math_v::nat_mul_nat_is_nat")
(declare-fun req%lib!marshalling.math_v.nat_mul_nat_is_nat. (Int Int) Bool)
(declare-const %%global_location_label%%3 Bool)
(declare-const %%global_location_label%%4 Bool)
(assert (forall ((x! Int) (y! Int)) (! (= (req%lib!marshalling.math_v.nat_mul_nat_is_nat. x! y!) (and (=> %%global_location_label%%3 (<= 0 x!)) (=> %%global_location_label%%4 (<= 0 y!)))) :pattern ((req%lib!marshalling.math_v.nat_mul_nat_is_nat. x! y!)))))
(declare-fun ens%lib!marshalling.math_v.nat_mul_nat_is_nat. (Int Int) Bool)
(assert (forall ((x! Int) (y! Int)) (! (= (ens%lib!marshalling.math_v.nat_mul_nat_is_nat. x! y!) (<= 0 (Mul x! y!))) :pattern ((ens%lib!marshalling.math_v.nat_mul_nat_is_nat. x! y!)))))
(set-info :comment ";; Function-Specs lib::marshalling::math_v::pos_mul_preserves_order")
(declare-fun req%lib!marshalling.math_v.pos_mul_preserves_order. (Int Int Int) Bool)
(declare-const %%global_location_label%%5 Bool)
(declare-const %%global_location_label%%6 Bool)
(assert (forall ((x! Int) (y! Int) (m! Int)) (! (= (req%lib!marshalling.math_v.pos_mul_preserves_order. x! y! m!) (and (=> %%global_location_label%%5 (and (<= 0 x!) (< x! y!))) (=> %%global_location_label%%6 (< 0 m!)))) :pattern ((req%lib!marshalling.math_v.pos_mul_preserves_order. x! y! m!)))))
(declare-fun ens%lib!marshalling.math_v.pos_mul_preserves_order. (Int Int Int) Bool)
(assert (forall ((x! Int) (y! Int) (m! Int)) (! (= (ens%lib!marshalling.math_v.pos_mul_preserves_order. x! y! m!) (< (Mul x! m!) (Mul y! m!))) :pattern ((ens%lib!marshalling.math_v.pos_mul_preserves_order. x! y! m!)))))
(set-info :comment ";; Function-Def lib::marshalling::math_v::pos_mul_preserves_order")
(set-info :comment ";; marshalling/math_v.rs:39:1: 39:61 (#0)")
(declare-const x! Int)
(declare-const y! Int)
(declare-const m! Int)
(assert fuel_defaults)
(assert (and (<= 0 x!) (< x! y!)))
(assert (< 0 m!))
(set-info :comment ";; postcondition not satisfied")
(declare-const %%location_label%%0 Bool)
(assert (not (=> %%location_label%%0 (< (Mul x! m!) (Mul y! m!)))))
(check-sat)
(exit)
